NAME : random_18
COMMENT : 47 random nodes
TYPE : TSP
DIMENSION : 47
EDGE_WEIGHT_TYPE : EUC_2D
NODE_COORD_SECTION
1 2841 -1994
2 -333 193
3 1404 -3879
4 3975 7393
5 1845 -27
6 -2123 1071
7 -2852 -5982
8 -2489 -5910
9 -5879 2754
10 1463 4864
11 1656 7375
12 -5336 849
13 6208 1017
14 -5549 -5487
15 3016 1134
16 5075 -121
17 5707 -3273
18 -597 282
19 -646 2330
20 -698 6979
21 -3335 6880
22 1289 916
23 -1812 -2811
24 320 5258
25 -3011 1339
26 2689 5036
27 1799 -5589
28 1612 5615
29 -949 -2509
30 -1217 981
31 1074 -132
32 3751 -2909
33 2006 -1763
34 -2979 6602
35 6971 6214
36 7348 -1110
37 52 -3993
38 2551 7025
39 1232 4633
40 5386 7218
41 -5363 -99
42 -5657 -4072
43 1249 3658
44 6017 -778
45 -5638 1071
46 -3555 -2480
47 1342 1002
EOF